919741
25 31 7859
31 28 12751
28 13 6411
13 29 18948
29 38 745
38 23 7449
23 34 31609
34 36 46280
36 6 22446
6 9 47658
9 8 54349
8 15 26227
15 17 45489
17 14 42391
14 3 30026
3 16 71701
16 2 57771
2 35 10541
35 11 5412
11 10 5506
10 1 6947
1 21 6578
21 7 17005
7 18 20722
18 27 12606
27 40 17541
40 19 13572
19 4 26533
4 22 23621
22 24 45980
24 20 65657
20 32 24202
32 5 3290
5 12 38538
12 33 3967
33 26 15458
26 37 14546
37 30 941
30 39 6375
39 25 4093
